CUSTOMERS : 10
VEHICLES : 7
0 294 262 134 290 238 252 240 165 204 120 
294 0 37 206 415 57 192 502 152 487 348 
262 37 0 185 404 25 192 466 116 458 312 
134 206 185 0 234 162 119 373 151 292 243 
290 415 404 234 0 384 234 477 383 277 405 
238 57 25 162 384 0 178 446 99 434 293 
252 192 192 119 234 178 0 491 226 388 359 
240 502 466 373 477 446 491 0 351 233 155 
165 152 116 151 383 99 226 351 0 368 197 
204 487 458 292 277 434 388 233 368 0 248 
120 348 312 243 405 293 359 155 197 248 0 
